c A SAT instance generated from a 3-CNF formula that had 12 clauses and 6 variables
p cnf 6 12
2 -6 -3 0
-5 6 1 0
2 5 -4 0
-2 6 -3 0
-3 -1 -2 0
6 -1 -2 0
-1 -2 6 0
2 4 -3 0
-2 5 -1 0
2 6 3 0
6 1 -2 0
5 2 -1 0
